(set-info :smt-lib-version 2.6)
(set-logic QF_NIA)
(set-info :source |
Generated by: Cristina Borralleras, Daniel Larraz, Albert Oliveras, Enric Rodriguez-Carbonell, Albert Rubio
Generated on: 2017-04-27
Generator: VeryMax
Application: Termination proving
Target solver: barcelogic
|)
(set-info :license "https://creativecommons.org/licenses/by/4.0/")
(set-info :category "industrial")
(set-info :status unknown)
(declare-fun Nl5arg11 () Int)
(declare-fun Nl5arg21 () Int)
(declare-fun Nl5arg31 () Int)
(declare-fun Nl5arg12 () Int)
(declare-fun Nl5arg22 () Int)
(declare-fun Nl5arg32 () Int)
(declare-fun Nl5arg13 () Int)
(declare-fun Nl5arg23 () Int)
(declare-fun Nl5arg33 () Int)
(declare-fun lam0n0 () Int)
(declare-fun lam0n1 () Int)
(declare-fun lam0n2 () Int)
(declare-fun lam0n3 () Int)
(declare-fun lam0n4 () Int)
(declare-fun lam0n5 () Int)
(declare-fun lam0n6 () Int)
(declare-fun Nl5CT1 () Int)
(declare-fun Nl5CT2 () Int)
(declare-fun Nl5CT3 () Int)
(declare-fun lam1n0 () Int)
(declare-fun lam1n1 () Int)
(declare-fun lam1n2 () Int)
(declare-fun lam1n3 () Int)
(declare-fun lam1n4 () Int)
(declare-fun lam1n5 () Int)
(declare-fun lam1n6 () Int)
(declare-fun lam2n0 () Int)
(declare-fun lam2n1 () Int)
(declare-fun lam2n2 () Int)
(declare-fun lam2n3 () Int)
(declare-fun lam2n4 () Int)
(declare-fun lam2n5 () Int)
(declare-fun lam2n6 () Int)
(declare-fun lam3n0 () Int)
(declare-fun lam3n1 () Int)
(declare-fun lam3n2 () Int)
(declare-fun lam3n3 () Int)
(declare-fun lam3n4 () Int)
(declare-fun lam3n5 () Int)
(declare-fun lam3n6 () Int)
(declare-fun lam4n0 () Int)
(declare-fun lam4n1 () Int)
(declare-fun lam4n2 () Int)
(declare-fun lam4n3 () Int)
(declare-fun lam4n4 () Int)
(declare-fun lam4n5 () Int)
(declare-fun lam4n6 () Int)
(declare-fun lam5n0 () Int)
(declare-fun lam5n1 () Int)
(declare-fun lam5n2 () Int)
(declare-fun lam5n3 () Int)
(declare-fun lam5n4 () Int)
(declare-fun lam5n5 () Int)
(declare-fun lam5n6 () Int)
(declare-fun lam6n0 () Int)
(declare-fun lam6n1 () Int)
(declare-fun lam6n2 () Int)
(declare-fun lam6n3 () Int)
(declare-fun lam6n4 () Int)
(declare-fun lam6n5 () Int)
(declare-fun lam6n6 () Int)
(declare-fun lam7n0 () Int)
(declare-fun lam7n1 () Int)
(declare-fun lam7n2 () Int)
(declare-fun lam7n3 () Int)
(declare-fun lam7n4 () Int)
(declare-fun lam7n5 () Int)
(declare-fun lam7n6 () Int)
(declare-fun lam8n0 () Int)
(declare-fun lam8n1 () Int)
(declare-fun lam8n2 () Int)
(declare-fun lam8n3 () Int)
(declare-fun lam8n4 () Int)
(declare-fun lam8n5 () Int)
(declare-fun lam9n0 () Int)
(declare-fun lam9n1 () Int)
(declare-fun lam9n2 () Int)
(declare-fun lam9n3 () Int)
(declare-fun lam9n4 () Int)
(declare-fun lam9n5 () Int)
(declare-fun lam10n0 () Int)
(declare-fun lam10n1 () Int)
(declare-fun lam10n2 () Int)
(declare-fun lam10n3 () Int)
(declare-fun lam10n4 () Int)
(declare-fun lam10n5 () Int)
(declare-fun lam11n0 () Int)
(declare-fun lam11n1 () Int)
(declare-fun lam11n2 () Int)
(declare-fun lam11n3 () Int)
(declare-fun lam11n4 () Int)
(declare-fun lam11n5 () Int)
(declare-fun lam11n6 () Int)
(declare-fun lam11n7 () Int)
(declare-fun lam11n8 () Int)
(declare-fun lam11n9 () Int)
(declare-fun lam12n0 () Int)
(declare-fun lam12n1 () Int)
(declare-fun lam12n2 () Int)
(declare-fun lam12n3 () Int)
(declare-fun lam12n4 () Int)
(declare-fun lam12n5 () Int)
(declare-fun lam12n6 () Int)
(declare-fun lam12n7 () Int)
(declare-fun lam12n8 () Int)
(declare-fun lam12n9 () Int)
(declare-fun lam13n0 () Int)
(declare-fun lam13n1 () Int)
(declare-fun lam13n2 () Int)
(declare-fun lam13n3 () Int)
(declare-fun lam13n4 () Int)
(declare-fun lam13n5 () Int)
(declare-fun lam13n6 () Int)
(declare-fun lam13n7 () Int)
(declare-fun lam13n8 () Int)
(declare-fun lam13n9 () Int)
(declare-fun lam14n0 () Int)
(declare-fun lam14n1 () Int)
(declare-fun lam14n2 () Int)
(declare-fun lam14n3 () Int)
(declare-fun lam14n4 () Int)
(declare-fun lam14n5 () Int)
(declare-fun lam14n6 () Int)
(declare-fun lam14n7 () Int)
(declare-fun lam14n8 () Int)
(declare-fun lam14n9 () Int)
(declare-fun lam14n10 () Int)
(declare-fun lam15n0 () Int)
(declare-fun lam15n1 () Int)
(declare-fun lam15n2 () Int)
(declare-fun lam15n3 () Int)
(declare-fun lam15n4 () Int)
(declare-fun lam15n5 () Int)
(declare-fun lam15n6 () Int)
(declare-fun lam15n7 () Int)
(declare-fun lam15n8 () Int)
(declare-fun lam15n9 () Int)
(declare-fun lam15n10 () Int)
(declare-fun lam16n0 () Int)
(declare-fun lam16n1 () Int)
(declare-fun lam16n2 () Int)
(declare-fun lam16n3 () Int)
(declare-fun lam16n4 () Int)
(declare-fun lam16n5 () Int)
(declare-fun lam16n6 () Int)
(declare-fun lam16n7 () Int)
(declare-fun lam16n8 () Int)
(declare-fun lam16n9 () Int)
(declare-fun lam16n10 () Int)
(declare-fun lam17n0 () Int)
(declare-fun lam17n1 () Int)
(declare-fun lam17n2 () Int)
(declare-fun lam17n3 () Int)
(declare-fun lam17n4 () Int)
(declare-fun lam17n5 () Int)
(declare-fun lam17n6 () Int)
(declare-fun lam18n0 () Int)
(declare-fun lam18n1 () Int)
(declare-fun lam18n2 () Int)
(declare-fun lam18n3 () Int)
(declare-fun lam18n4 () Int)
(declare-fun lam18n5 () Int)
(declare-fun lam18n6 () Int)
(declare-fun lam19n0 () Int)
(declare-fun lam19n1 () Int)
(declare-fun lam19n2 () Int)
(declare-fun lam19n3 () Int)
(declare-fun lam19n4 () Int)
(declare-fun lam19n5 () Int)
(declare-fun lam19n6 () Int)
(declare-fun lam20n0 () Int)
(declare-fun lam20n1 () Int)
(declare-fun lam20n2 () Int)
(declare-fun lam20n3 () Int)
(declare-fun lam20n4 () Int)
(declare-fun lam20n5 () Int)
(declare-fun lam20n6 () Int)
(declare-fun lam20n7 () Int)
(declare-fun lam20n8 () Int)
(declare-fun lam20n9 () Int)
(declare-fun lam20n10 () Int)
(declare-fun lam21n0 () Int)
(declare-fun lam21n1 () Int)
(declare-fun lam21n2 () Int)
(declare-fun lam21n3 () Int)
(declare-fun lam21n4 () Int)
(declare-fun lam21n5 () Int)
(declare-fun lam21n6 () Int)
(declare-fun lam21n7 () Int)
(declare-fun lam21n8 () Int)
(declare-fun lam21n9 () Int)
(declare-fun lam21n10 () Int)
(declare-fun lam22n0 () Int)
(declare-fun lam22n1 () Int)
(declare-fun lam22n2 () Int)
(declare-fun lam22n3 () Int)
(declare-fun lam22n4 () Int)
(declare-fun lam22n5 () Int)
(declare-fun lam22n6 () Int)
(declare-fun lam22n7 () Int)
(declare-fun lam22n8 () Int)
(declare-fun lam22n9 () Int)
(declare-fun lam22n10 () Int)
(declare-fun lam23n0 () Int)
(declare-fun lam23n1 () Int)
(declare-fun lam23n2 () Int)
(declare-fun lam23n3 () Int)
(declare-fun lam23n4 () Int)
(declare-fun lam23n5 () Int)
(declare-fun lam23n6 () Int)
(declare-fun lam23n7 () Int)
(declare-fun lam23n8 () Int)
(declare-fun lam23n9 () Int)
(declare-fun lam23n10 () Int)
(declare-fun lam23n11 () Int)
(declare-fun lam24n0 () Int)
(declare-fun lam24n1 () Int)
(declare-fun lam24n2 () Int)
(declare-fun lam24n3 () Int)
(declare-fun lam24n4 () Int)
(declare-fun lam24n5 () Int)
(declare-fun lam24n6 () Int)
(declare-fun lam24n7 () Int)
(declare-fun lam24n8 () Int)
(declare-fun lam24n9 () Int)
(declare-fun lam24n10 () Int)
(declare-fun lam24n11 () Int)
(declare-fun lam25n0 () Int)
(declare-fun lam25n1 () Int)
(declare-fun lam25n2 () Int)
(declare-fun lam25n3 () Int)
(declare-fun lam25n4 () Int)
(declare-fun lam25n5 () Int)
(declare-fun lam25n6 () Int)
(declare-fun lam25n7 () Int)
(declare-fun lam25n8 () Int)
(declare-fun lam25n9 () Int)
(declare-fun lam25n10 () Int)
(declare-fun lam25n11 () Int)
(declare-fun lam26n0 () Int)
(declare-fun lam26n1 () Int)
(declare-fun lam26n2 () Int)
(declare-fun lam26n3 () Int)
(declare-fun lam27n0 () Int)
(declare-fun lam27n1 () Int)
(declare-fun lam27n2 () Int)
(declare-fun lam27n3 () Int)
(declare-fun lam28n0 () Int)
(declare-fun lam28n1 () Int)
(declare-fun lam28n2 () Int)
(declare-fun lam28n3 () Int)
(declare-fun lam29n0 () Int)
(declare-fun lam29n1 () Int)
(declare-fun lam29n2 () Int)
(declare-fun lam29n3 () Int)
(declare-fun lam30n0 () Int)
(declare-fun lam30n1 () Int)
(declare-fun lam30n2 () Int)
(declare-fun lam30n3 () Int)
(declare-fun lam31n0 () Int)
(declare-fun lam31n1 () Int)
(declare-fun lam31n2 () Int)
(declare-fun lam31n3 () Int)
(declare-fun lam32n0 () Int)
(declare-fun lam32n1 () Int)
(declare-fun lam32n2 () Int)
(declare-fun lam32n3 () Int)
(declare-fun lam32n4 () Int)
(declare-fun lam32n5 () Int)
(declare-fun lam32n6 () Int)
(declare-fun lam32n7 () Int)
(declare-fun lam32n8 () Int)
(declare-fun lam32n9 () Int)
(declare-fun lam32n10 () Int)
(declare-fun lam32n11 () Int)
(declare-fun lam32n12 () Int)
(declare-fun lam32n13 () Int)
(declare-fun lam32n14 () Int)
(declare-fun lam32n15 () Int)
(declare-fun lam33n0 () Int)
(declare-fun lam33n1 () Int)
(declare-fun lam33n2 () Int)
(declare-fun lam33n3 () Int)
(declare-fun lam33n4 () Int)
(declare-fun lam33n5 () Int)
(declare-fun lam33n6 () Int)
(declare-fun lam33n7 () Int)
(declare-fun lam33n8 () Int)
(declare-fun lam33n9 () Int)
(declare-fun lam33n10 () Int)
(declare-fun lam33n11 () Int)
(declare-fun lam33n12 () Int)
(declare-fun lam33n13 () Int)
(declare-fun lam33n14 () Int)
(declare-fun lam33n15 () Int)
(declare-fun lam34n0 () Int)
(declare-fun lam34n1 () Int)
(declare-fun lam34n2 () Int)
(declare-fun lam34n3 () Int)
(declare-fun lam34n4 () Int)
(declare-fun lam34n5 () Int)
(declare-fun lam34n6 () Int)
(declare-fun lam34n7 () Int)
(declare-fun lam34n8 () Int)
(declare-fun lam34n9 () Int)
(declare-fun lam34n10 () Int)
(declare-fun lam34n11 () Int)
(declare-fun lam34n12 () Int)
(declare-fun lam34n13 () Int)
(declare-fun lam34n14 () Int)
(declare-fun lam34n15 () Int)
(declare-fun lam35n0 () Int)
(declare-fun lam35n1 () Int)
(declare-fun lam35n2 () Int)
(declare-fun lam35n3 () Int)
(declare-fun lam35n4 () Int)
(declare-fun lam35n5 () Int)
(declare-fun lam35n6 () Int)
(declare-fun lam35n7 () Int)
(declare-fun lam35n8 () Int)
(declare-fun lam35n9 () Int)
(declare-fun lam35n10 () Int)
(declare-fun lam35n11 () Int)
(declare-fun lam35n12 () Int)
(declare-fun lam35n13 () Int)
(declare-fun lam35n14 () Int)
(declare-fun lam35n15 () Int)
(declare-fun lam36n0 () Int)
(declare-fun lam36n1 () Int)
(declare-fun lam36n2 () Int)
(declare-fun lam36n3 () Int)
(declare-fun lam36n4 () Int)
(declare-fun lam36n5 () Int)
(declare-fun lam36n6 () Int)
(declare-fun lam36n7 () Int)
(declare-fun lam36n8 () Int)
(declare-fun lam36n9 () Int)
(declare-fun lam36n10 () Int)
(declare-fun lam36n11 () Int)
(declare-fun lam36n12 () Int)
(declare-fun lam36n13 () Int)
(declare-fun lam36n14 () Int)
(declare-fun lam36n15 () Int)
(declare-fun lam37n0 () Int)
(declare-fun lam37n1 () Int)
(declare-fun lam37n2 () Int)
(declare-fun lam37n3 () Int)
(declare-fun lam37n4 () Int)
(declare-fun lam37n5 () Int)
(declare-fun lam37n6 () Int)
(declare-fun lam37n7 () Int)
(declare-fun lam37n8 () Int)
(declare-fun lam37n9 () Int)
(declare-fun lam37n10 () Int)
(declare-fun lam37n11 () Int)
(declare-fun lam37n12 () Int)
(declare-fun lam37n13 () Int)
(declare-fun lam37n14 () Int)
(declare-fun lam37n15 () Int)
(declare-fun lam38n0 () Int)
(declare-fun lam38n1 () Int)
(declare-fun lam38n2 () Int)
(declare-fun lam38n3 () Int)
(declare-fun lam38n4 () Int)
(declare-fun lam38n5 () Int)
(declare-fun lam38n6 () Int)
(declare-fun lam38n7 () Int)
(declare-fun lam38n8 () Int)
(declare-fun lam38n9 () Int)
(declare-fun lam38n10 () Int)
(declare-fun lam38n11 () Int)
(declare-fun lam38n12 () Int)
(declare-fun lam38n13 () Int)
(declare-fun lam38n14 () Int)
(declare-fun lam38n15 () Int)
(declare-fun lam38n16 () Int)
(declare-fun lam39n0 () Int)
(declare-fun lam39n1 () Int)
(declare-fun lam39n2 () Int)
(declare-fun lam39n3 () Int)
(declare-fun lam39n4 () Int)
(declare-fun lam39n5 () Int)
(declare-fun lam39n6 () Int)
(declare-fun lam39n7 () Int)
(declare-fun lam39n8 () Int)
(declare-fun lam39n9 () Int)
(declare-fun lam39n10 () Int)
(declare-fun lam39n11 () Int)
(declare-fun lam39n12 () Int)
(declare-fun lam39n13 () Int)
(declare-fun lam39n14 () Int)
(declare-fun lam39n15 () Int)
(declare-fun lam39n16 () Int)
(declare-fun lam40n0 () Int)
(declare-fun lam40n1 () Int)
(declare-fun lam40n2 () Int)
(declare-fun lam40n3 () Int)
(declare-fun lam40n4 () Int)
(declare-fun lam40n5 () Int)
(declare-fun lam40n6 () Int)
(declare-fun lam40n7 () Int)
(declare-fun lam40n8 () Int)
(declare-fun lam40n9 () Int)
(declare-fun lam40n10 () Int)
(declare-fun lam40n11 () Int)
(declare-fun lam40n12 () Int)
(declare-fun lam40n13 () Int)
(declare-fun lam40n14 () Int)
(declare-fun lam40n15 () Int)
(declare-fun lam40n16 () Int)
(declare-fun undef6 () Int)
(declare-fun undef139 () Int)
(declare-fun undef32 () Int)
(declare-fun undef140 () Int)
(declare-fun undef33 () Int)
(declare-fun undef34 () Int)
(declare-fun undef37 () Int)
(declare-fun undef21 () Int)
(declare-fun undef26 () Int)
(declare-fun undef42 () Int)
(declare-fun undef22 () Int)
(declare-fun undef23 () Int)
(declare-fun undef43 () Int)
(declare-fun undef48 () Int)
(declare-fun undef49 () Int)
(declare-fun undef11 () Int)
(declare-fun undef12 () Int)
(declare-fun undef27 () Int)
(declare-fun undef28 () Int)
(declare-fun undef29 () Int)
(declare-fun undef50 () Int)
(declare-fun undef51 () Int)
(declare-fun undef52 () Int)
(declare-fun arg1 () Int)
(declare-fun undef79 () Int)
(declare-fun arg2 () Int)
(declare-fun undef80 () Int)
(declare-fun undef100 () Int)
(declare-fun undef81 () Int)
(declare-fun undef84 () Int)
(declare-fun undef105 () Int)
(declare-fun arg3 () Int)
(declare-fun undef83 () Int)
(declare-fun undef101 () Int)
(declare-fun undef102 () Int)
(declare-fun undef85 () Int)
(declare-fun undef86 () Int)
(declare-fun undef90 () Int)
(declare-fun undef91 () Int)
(declare-fun undef89 () Int)
(declare-fun undef92 () Int)
(declare-fun undef93 () Int)
(declare-fun undef97 () Int)
(declare-fun undef99 () Int)
(declare-fun undef98 () Int)
(declare-fun undef96 () Int)
(declare-fun lam44n0 () Int)
(declare-fun lam44n1 () Int)
(declare-fun lam44n2 () Int)
(declare-fun lam44n3 () Int)
(declare-fun lam44n4 () Int)
(declare-fun lam44n5 () Int)
(declare-fun lam44n6 () Int)
(declare-fun RFN1_CT () Int)
(declare-fun RFN1_arg1 () Int)
(declare-fun RFN1_arg2 () Int)
(declare-fun RFN1_arg3 () Int)
(declare-fun lam42n0 () Int)
(declare-fun lam42n1 () Int)
(declare-fun lam42n2 () Int)
(declare-fun lam42n3 () Int)
(declare-fun lam42n4 () Int)
(declare-fun lam42n5 () Int)
(declare-fun lam42n6 () Int)
(declare-fun lam43n0 () Int)
(declare-fun lam43n1 () Int)
(declare-fun lam43n2 () Int)
(declare-fun lam43n3 () Int)
(declare-fun lam43n4 () Int)
(declare-fun lam43n5 () Int)
(declare-fun lam43n6 () Int)
(declare-fun lam41n0 () Int)
(declare-fun lam41n1 () Int)
(declare-fun lam41n2 () Int)
(declare-fun lam41n3 () Int)
(declare-fun lam41n4 () Int)
(declare-fun lam41n5 () Int)
(declare-fun lam41n6 () Int)
(assert ( and ( <= ( - 1 ) Nl5arg11 ) ( <= Nl5arg11 1 ) ( <= ( - 1 ) Nl5arg21 ) ( <= Nl5arg21 1 ) ( <= ( - 1 ) Nl5arg31 ) ( <= Nl5arg31 1 ) ( <= ( - 1 ) Nl5arg12 ) ( <= Nl5arg12 1 ) ( <= ( - 1 ) Nl5arg22 ) ( <= Nl5arg22 1 ) ( <= ( - 1 ) Nl5arg32 ) ( <= Nl5arg32 1 ) ( <= ( - 1 ) Nl5arg13 ) ( <= Nl5arg13 1 ) ( <= ( - 1 ) Nl5arg23 ) ( <= Nl5arg23 1 ) ( <= ( - 1 ) Nl5arg33 ) ( <= Nl5arg33 1 ) ))
(assert ( or ( and ( >= lam0n0 0 ) ( >= lam0n1 0 ) ( >= lam0n2 0 ) ( >= lam0n3 0 ) ( >= lam0n4 0 ) ( >= lam0n5 0 ) ( >= lam0n6 0 ) ( > ( + ( * 1 lam0n2 ) ( * 1 lam0n3 ) ( * Nl5CT1 lam0n4 ) ( * Nl5CT2 lam0n5 ) ( * Nl5CT3 lam0n6 ) ( - 1 ) ) 0 ) ( = ( + ( * ( - 1 ) lam0n2 ) ( * ( - 1 ) lam0n3 ) ( * Nl5arg11 lam0n4 ) ( * Nl5arg12 lam0n5 ) ( * Nl5arg13 lam0n6 ) ) 0 ) ( = ( + ( * Nl5arg21 lam0n4 ) ( * Nl5arg22 lam0n5 ) ( * Nl5arg23 lam0n6 ) ) 0 ) ( = ( + ( * Nl5arg31 lam0n4 ) ( * Nl5arg32 lam0n5 ) ( * Nl5arg33 lam0n6 ) ) 0 ) ( = ( + ( * ( - 1 ) lam0n0 ) ( * 1 lam0n3 ) ) 0 ) ( = ( * 1 lam0n1 ) 0 ) ) ( and ( >= lam1n0 0 ) ( >= lam1n1 0 ) ( >= lam1n2 0 ) ( >= lam1n3 0 ) ( >= lam1n4 0 ) ( >= lam1n5 0 ) ( >= lam1n6 0 ) ( > ( + ( * 1 lam1n2 ) ( * 1 lam1n3 ) ( * Nl5CT1 lam1n4 ) ( * Nl5CT2 lam1n5 ) ( * Nl5CT3 lam1n6 ) ( - 1 ( + ( + ( + Nl5CT1 ( * Nl5arg11 0 ) ) ( * Nl5arg21 0 ) ) ( * Nl5arg31 0 ) ) ) ) 0 ) ( = ( + ( * ( - 1 ) lam1n2 ) ( * ( - 1 ) lam1n3 ) ( * Nl5arg11 lam1n4 ) ( * Nl5arg12 lam1n5 ) ( * Nl5arg13 lam1n6 ) ) 0 ) ( = ( + ( * Nl5arg21 lam1n4 ) ( * Nl5arg22 lam1n5 ) ( * Nl5arg23 lam1n6 ) ) 0 ) ( = ( + ( * Nl5arg31 lam1n4 ) ( * Nl5arg32 lam1n5 ) ( * Nl5arg33 lam1n6 ) ) 0 ) ( = ( + ( * ( - 1 ) lam1n0 ) ( * 1 lam1n3 ) ( - ( + 0 ( * Nl5arg11 1 ) ) ) ) 0 ) ( = ( - ( + 0 ( * Nl5arg21 1 ) ) ) 0 ) ( = ( - ( + 0 ( * Nl5arg31 1 ) ) ) 0 ) ( = ( * 1 lam1n1 ) 0 ) ) ))
(assert ( or ( and ( >= lam0n0 0 ) ( >= lam0n1 0 ) ( >= lam0n2 0 ) ( >= lam0n3 0 ) ( >= lam0n4 0 ) ( >= lam0n5 0 ) ( >= lam0n6 0 ) ( > ( + ( * 1 lam0n2 ) ( * 1 lam0n3 ) ( * Nl5CT1 lam0n4 ) ( * Nl5CT2 lam0n5 ) ( * Nl5CT3 lam0n6 ) ( - 1 ) ) 0 ) ( = ( + ( * ( - 1 ) lam0n2 ) ( * ( - 1 ) lam0n3 ) ( * Nl5arg11 lam0n4 ) ( * Nl5arg12 lam0n5 ) ( * Nl5arg13 lam0n6 ) ) 0 ) ( = ( + ( * Nl5arg21 lam0n4 ) ( * Nl5arg22 lam0n5 ) ( * Nl5arg23 lam0n6 ) ) 0 ) ( = ( + ( * Nl5arg31 lam0n4 ) ( * Nl5arg32 lam0n5 ) ( * Nl5arg33 lam0n6 ) ) 0 ) ( = ( + ( * ( - 1 ) lam0n0 ) ( * 1 lam0n3 ) ) 0 ) ( = ( * 1 lam0n1 ) 0 ) ) ( and ( >= lam2n0 0 ) ( >= lam2n1 0 ) ( >= lam2n2 0 ) ( >= lam2n3 0 ) ( >= lam2n4 0 ) ( >= lam2n5 0 ) ( >= lam2n6 0 ) ( > ( + ( * 1 lam2n2 ) ( * 1 lam2n3 ) ( * Nl5CT1 lam2n4 ) ( * Nl5CT2 lam2n5 ) ( * Nl5CT3 lam2n6 ) ( - 1 ( + ( + ( + Nl5CT2 ( * Nl5arg12 0 ) ) ( * Nl5arg22 0 ) ) ( * Nl5arg32 0 ) ) ) ) 0 ) ( = ( + ( * ( - 1 ) lam2n2 ) ( * ( - 1 ) lam2n3 ) ( * Nl5arg11 lam2n4 ) ( * Nl5arg12 lam2n5 ) ( * Nl5arg13 lam2n6 ) ) 0 ) ( = ( + ( * Nl5arg21 lam2n4 ) ( * Nl5arg22 lam2n5 ) ( * Nl5arg23 lam2n6 ) ) 0 ) ( = ( + ( * Nl5arg31 lam2n4 ) ( * Nl5arg32 lam2n5 ) ( * Nl5arg33 lam2n6 ) ) 0 ) ( = ( + ( * ( - 1 ) lam2n0 ) ( * 1 lam2n3 ) ( - ( + 0 ( * Nl5arg12 1 ) ) ) ) 0 ) ( = ( - ( + 0 ( * Nl5arg22 1 ) ) ) 0 ) ( = ( - ( + 0 ( * Nl5arg32 1 ) ) ) 0 ) ( = ( * 1 lam2n1 ) 0 ) ) ))
(assert ( or ( and ( >= lam0n0 0 ) ( >= lam0n1 0 ) ( >= lam0n2 0 ) ( >= lam0n3 0 ) ( >= lam0n4 0 ) ( >= lam0n5 0 ) ( >= lam0n6 0 ) ( > ( + ( * 1 lam0n2 ) ( * 1 lam0n3 ) ( * Nl5CT1 lam0n4 ) ( * Nl5CT2 lam0n5 ) ( * Nl5CT3 lam0n6 ) ( - 1 ) ) 0 ) ( = ( + ( * ( - 1 ) lam0n2 ) ( * ( - 1 ) lam0n3 ) ( * Nl5arg11 lam0n4 ) ( * Nl5arg12 lam0n5 ) ( * Nl5arg13 lam0n6 ) ) 0 ) ( = ( + ( * Nl5arg21 lam0n4 ) ( * Nl5arg22 lam0n5 ) ( * Nl5arg23 lam0n6 ) ) 0 ) ( = ( + ( * Nl5arg31 lam0n4 ) ( * Nl5arg32 lam0n5 ) ( * Nl5arg33 lam0n6 ) ) 0 ) ( = ( + ( * ( - 1 ) lam0n0 ) ( * 1 lam0n3 ) ) 0 ) ( = ( * 1 lam0n1 ) 0 ) ) ( and ( >= lam3n0 0 ) ( >= lam3n1 0 ) ( >= lam3n2 0 ) ( >= lam3n3 0 ) ( >= lam3n4 0 ) ( >= lam3n5 0 ) ( >= lam3n6 0 ) ( > ( + ( * 1 lam3n2 ) ( * 1 lam3n3 ) ( * Nl5CT1 lam3n4 ) ( * Nl5CT2 lam3n5 ) ( * Nl5CT3 lam3n6 ) ( - 1 ( + ( + ( + Nl5CT3 ( * Nl5arg13 0 ) ) ( * Nl5arg23 0 ) ) ( * Nl5arg33 0 ) ) ) ) 0 ) ( = ( + ( * ( - 1 ) lam3n2 ) ( * ( - 1 ) lam3n3 ) ( * Nl5arg11 lam3n4 ) ( * Nl5arg12 lam3n5 ) ( * Nl5arg13 lam3n6 ) ) 0 ) ( = ( + ( * Nl5arg21 lam3n4 ) ( * Nl5arg22 lam3n5 ) ( * Nl5arg23 lam3n6 ) ) 0 ) ( = ( + ( * Nl5arg31 lam3n4 ) ( * Nl5arg32 lam3n5 ) ( * Nl5arg33 lam3n6 ) ) 0 ) ( = ( + ( * ( - 1 ) lam3n0 ) ( * 1 lam3n3 ) ( - ( + 0 ( * Nl5arg13 1 ) ) ) ) 0 ) ( = ( - ( + 0 ( * Nl5arg23 1 ) ) ) 0 ) ( = ( - ( + 0 ( * Nl5arg33 1 ) ) ) 0 ) ( = ( * 1 lam3n1 ) 0 ) ) ))
(assert ( or ( and ( >= lam4n0 0 ) ( >= lam4n1 0 ) ( >= lam4n2 0 ) ( >= lam4n3 0 ) ( >= lam4n4 0 ) ( >= lam4n5 0 ) ( >= lam4n6 0 ) ( > ( + ( * 1 lam4n1 ) ( * 1 lam4n2 ) ( * 1 lam4n3 ) ( * Nl5CT1 lam4n4 ) ( * Nl5CT2 lam4n5 ) ( * Nl5CT3 lam4n6 ) ( - 1 ) ) 0 ) ( = ( + ( * ( - 1 ) lam4n0 ) ( * ( - 1 ) lam4n1 ) ( * Nl5arg11 lam4n4 ) ( * Nl5arg12 lam4n5 ) ( * Nl5arg13 lam4n6 ) ) 0 ) ( = ( + ( * Nl5arg21 lam4n4 ) ( * Nl5arg22 lam4n5 ) ( * Nl5arg23 lam4n6 ) ) 0 ) ( = ( + ( * Nl5arg31 lam4n4 ) ( * Nl5arg32 lam4n5 ) ( * Nl5arg33 lam4n6 ) ) 0 ) ( = ( + ( * 1 lam4n0 ) ( * ( - 1 ) lam4n2 ) ) 0 ) ( = ( * ( - 1 ) lam4n3 ) 0 ) ) ( and ( >= lam5n0 0 ) ( >= lam5n1 0 ) ( >= lam5n2 0 ) ( >= lam5n3 0 ) ( >= lam5n4 0 ) ( >= lam5n5 0 ) ( >= lam5n6 0 ) ( > ( + ( * 1 lam5n1 ) ( * 1 lam5n2 ) ( * 1 lam5n3 ) ( * Nl5CT1 lam5n4 ) ( * Nl5CT2 lam5n5 ) ( * Nl5CT3 lam5n6 ) ( - 1 ( + ( + ( + Nl5CT1 ( * Nl5arg11 0 ) ) ( * Nl5arg21 0 ) ) ( * Nl5arg31 0 ) ) ) ) 0 ) ( = ( + ( * ( - 1 ) lam5n0 ) ( * ( - 1 ) lam5n1 ) ( * Nl5arg11 lam5n4 ) ( * Nl5arg12 lam5n5 ) ( * Nl5arg13 lam5n6 ) ) 0 ) ( = ( + ( * Nl5arg21 lam5n4 ) ( * Nl5arg22 lam5n5 ) ( * Nl5arg23 lam5n6 ) ) 0 ) ( = ( + ( * Nl5arg31 lam5n4 ) ( * Nl5arg32 lam5n5 ) ( * Nl5arg33 lam5n6 ) ) 0 ) ( = ( + ( * 1 lam5n0 ) ( * ( - 1 ) lam5n2 ) ( - ( + 0 ( * Nl5arg11 1 ) ) ) ) 0 ) ( = ( - ( + 0 ( * Nl5arg21 1 ) ) ) 0 ) ( = ( - ( + 0 ( * Nl5arg31 1 ) ) ) 0 ) ( = ( * ( - 1 ) lam5n3 ) 0 ) ) ))
(assert ( or ( and ( >= lam4n0 0 ) ( >= lam4n1 0 ) ( >= lam4n2 0 ) ( >= lam4n3 0 ) ( >= lam4n4 0 ) ( >= lam4n5 0 ) ( >= lam4n6 0 ) ( > ( + ( * 1 lam4n1 ) ( * 1 lam4n2 ) ( * 1 lam4n3 ) ( * Nl5CT1 lam4n4 ) ( * Nl5CT2 lam4n5 ) ( * Nl5CT3 lam4n6 ) ( - 1 ) ) 0 ) ( = ( + ( * ( - 1 ) lam4n0 ) ( * ( - 1 ) lam4n1 ) ( * Nl5arg11 lam4n4 ) ( * Nl5arg12 lam4n5 ) ( * Nl5arg13 lam4n6 ) ) 0 ) ( = ( + ( * Nl5arg21 lam4n4 ) ( * Nl5arg22 lam4n5 ) ( * Nl5arg23 lam4n6 ) ) 0 ) ( = ( + ( * Nl5arg31 lam4n4 ) ( * Nl5arg32 lam4n5 ) ( * Nl5arg33 lam4n6 ) ) 0 ) ( = ( + ( * 1 lam4n0 ) ( * ( - 1 ) lam4n2 ) ) 0 ) ( = ( * ( - 1 ) lam4n3 ) 0 ) ) ( and ( >= lam6n0 0 ) ( >= lam6n1 0 ) ( >= lam6n2 0 ) ( >= lam6n3 0 ) ( >= lam6n4 0 ) ( >= lam6n5 0 ) ( >= lam6n6 0 ) ( > ( + ( * 1 lam6n1 ) ( * 1 lam6n2 ) ( * 1 lam6n3 ) ( * Nl5CT1 lam6n4 ) ( * Nl5CT2 lam6n5 ) ( * Nl5CT3 lam6n6 ) ( - 1 ( + ( + ( + Nl5CT2 ( * Nl5arg12 0 ) ) ( * Nl5arg22 0 ) ) ( * Nl5arg32 0 ) ) ) ) 0 ) ( = ( + ( * ( - 1 ) lam6n0 ) ( * ( - 1 ) lam6n1 ) ( * Nl5arg11 lam6n4 ) ( * Nl5arg12 lam6n5 ) ( * Nl5arg13 lam6n6 ) ) 0 ) ( = ( + ( * Nl5arg21 lam6n4 ) ( * Nl5arg22 lam6n5 ) ( * Nl5arg23 lam6n6 ) ) 0 ) ( = ( + ( * Nl5arg31 lam6n4 ) ( * Nl5arg32 lam6n5 ) ( * Nl5arg33 lam6n6 ) ) 0 ) ( = ( + ( * 1 lam6n0 ) ( * ( - 1 ) lam6n2 ) ( - ( + 0 ( * Nl5arg12 1 ) ) ) ) 0 ) ( = ( - ( + 0 ( * Nl5arg22 1 ) ) ) 0 ) ( = ( - ( + 0 ( * Nl5arg32 1 ) ) ) 0 ) ( = ( * ( - 1 ) lam6n3 ) 0 ) ) ))
(assert ( or ( and ( >= lam4n0 0 ) ( >= lam4n1 0 ) ( >= lam4n2 0 ) ( >= lam4n3 0 ) ( >= lam4n4 0 ) ( >= lam4n5 0 ) ( >= lam4n6 0 ) ( > ( + ( * 1 lam4n1 ) ( * 1 lam4n2 ) ( * 1 lam4n3 ) ( * Nl5CT1 lam4n4 ) ( * Nl5CT2 lam4n5 ) ( * Nl5CT3 lam4n6 ) ( - 1 ) ) 0 ) ( = ( + ( * ( - 1 ) lam4n0 ) ( * ( - 1 ) lam4n1 ) ( * Nl5arg11 lam4n4 ) ( * Nl5arg12 lam4n5 ) ( * Nl5arg13 lam4n6 ) ) 0 ) ( = ( + ( * Nl5arg21 lam4n4 ) ( * Nl5arg22 lam4n5 ) ( * Nl5arg23 lam4n6 ) ) 0 ) ( = ( + ( * Nl5arg31 lam4n4 ) ( * Nl5arg32 lam4n5 ) ( * Nl5arg33 lam4n6 ) ) 0 ) ( = ( + ( * 1 lam4n0 ) ( * ( - 1 ) lam4n2 ) ) 0 ) ( = ( * ( - 1 ) lam4n3 ) 0 ) ) ( and ( >= lam7n0 0 ) ( >= lam7n1 0 ) ( >= lam7n2 0 ) ( >= lam7n3 0 ) ( >= lam7n4 0 ) ( >= lam7n5 0 ) ( >= lam7n6 0 ) ( > ( + ( * 1 lam7n1 ) ( * 1 lam7n2 ) ( * 1 lam7n3 ) ( * Nl5CT1 lam7n4 ) ( * Nl5CT2 lam7n5 ) ( * Nl5CT3 lam7n6 ) ( - 1 ( + ( + ( + Nl5CT3 ( * Nl5arg13 0 ) ) ( * Nl5arg23 0 ) ) ( * Nl5arg33 0 ) ) ) ) 0 ) ( = ( + ( * ( - 1 ) lam7n0 ) ( * ( - 1 ) lam7n1 ) ( * Nl5arg11 lam7n4 ) ( * Nl5arg12 lam7n5 ) ( * Nl5arg13 lam7n6 ) ) 0 ) ( = ( + ( * Nl5arg21 lam7n4 ) ( * Nl5arg22 lam7n5 ) ( * Nl5arg23 lam7n6 ) ) 0 ) ( = ( + ( * Nl5arg31 lam7n4 ) ( * Nl5arg32 lam7n5 ) ( * Nl5arg33 lam7n6 ) ) 0 ) ( = ( + ( * 1 lam7n0 ) ( * ( - 1 ) lam7n2 ) ( - ( + 0 ( * Nl5arg13 1 ) ) ) ) 0 ) ( = ( - ( + 0 ( * Nl5arg23 1 ) ) ) 0 ) ( = ( - ( + 0 ( * Nl5arg33 1 ) ) ) 0 ) ( = ( * ( - 1 ) lam7n3 ) 0 ) ) ))
(assert ( or ( and ( <= ( + undef6 ( * ( - 1 ) undef139 ) ) 0 ) ( <= ( + 1 ( * ( - 1 ) undef6 ) ) 0 ) ( <= ( + 1 ( * ( - 1 ) undef6 ) undef32 ) 0 ) ( not ( <= undef32 0 ) ) ( <= ( + 1 ( * ( - 1 ) undef139 ) ) 0 ) ( <= ( + 1 ( * ( - 1 ) undef140 ) ) 0 ) ( <= ( + ( + ( + ( + Nl5CT1 ( * Nl5arg11 0 ) ) ( * Nl5arg21 0 ) ) ( * Nl5arg31 0 ) ) ( * ( + 0 ( * Nl5arg11 1 ) ) undef32 ) ( * ( + 0 ( * Nl5arg21 1 ) ) undef33 ) ( * ( + 0 ( * Nl5arg31 1 ) ) undef34 ) ) 0 ) ( <= ( + ( + ( + ( + Nl5CT2 ( * Nl5arg12 0 ) ) ( * Nl5arg22 0 ) ) ( * Nl5arg32 0 ) ) ( * ( + 0 ( * Nl5arg12 1 ) ) undef32 ) ( * ( + 0 ( * Nl5arg22 1 ) ) undef33 ) ( * ( + 0 ( * Nl5arg32 1 ) ) undef34 ) ) 0 ) ( <= ( + ( + ( + ( + Nl5CT3 ( * Nl5arg13 0 ) ) ( * Nl5arg23 0 ) ) ( * Nl5arg33 0 ) ) ( * ( + 0 ( * Nl5arg13 1 ) ) undef32 ) ( * ( + 0 ( * Nl5arg23 1 ) ) undef33 ) ( * ( + 0 ( * Nl5arg33 1 ) ) undef34 ) ) 0 ) ) ( and ( <= ( + undef6 ( * ( - 1 ) undef139 ) ) 0 ) ( <= ( + ( * ( - 1 ) undef6 ) undef37 ) 0 ) ( <= ( + 1 ( * ( - 1 ) undef6 ) ) 0 ) ( <= ( + 1 undef21 ( * ( - 1 ) undef37 ) ) 0 ) ( not ( <= undef21 0 ) ) ( <= ( + 1 ( * ( - 1 ) undef37 ) ) 0 ) ( <= ( + 1 ( * ( - 1 ) undef139 ) ) 0 ) ( <= ( + 1 ( * ( - 1 ) undef140 ) ) 0 ) ( <= ( + 2 ( * ( - 1 ) undef26 ) ) 0 ) ( <= ( + 2 ( * ( - 1 ) undef42 ) ) 0 ) ( <= ( + ( + ( + ( + Nl5CT1 ( * Nl5arg11 0 ) ) ( * Nl5arg21 0 ) ) ( * Nl5arg31 0 ) ) ( * ( + 0 ( * Nl5arg11 1 ) ) undef21 ) ( * ( + 0 ( * Nl5arg21 1 ) ) undef22 ) ( * ( + 0 ( * Nl5arg31 1 ) ) undef23 ) ) 0 ) ( <= ( + ( + ( + ( + Nl5CT2 ( * Nl5arg12 0 ) ) ( * Nl5arg22 0 ) ) ( * Nl5arg32 0 ) ) ( * ( + 0 ( * Nl5arg12 1 ) ) undef21 ) ( * ( + 0 ( * Nl5arg22 1 ) ) undef22 ) ( * ( + 0 ( * Nl5arg32 1 ) ) undef23 ) ) 0 ) ( <= ( + ( + ( + ( + Nl5CT3 ( * Nl5arg13 0 ) ) ( * Nl5arg23 0 ) ) ( * Nl5arg33 0 ) ) ( * ( + 0 ( * Nl5arg13 1 ) ) undef21 ) ( * ( + 0 ( * Nl5arg23 1 ) ) undef22 ) ( * ( + 0 ( * Nl5arg33 1 ) ) undef23 ) ) 0 ) ) ( and ( <= ( + undef6 ( * ( - 1 ) undef139 ) ) 0 ) ( <= ( + ( * ( - 1 ) undef6 ) undef43 ) 0 ) ( <= ( * ( - 1 ) undef48 ) 0 ) ( <= ( + 1 ( * ( - 1 ) undef6 ) ) 0 ) ( <= ( + 1 undef21 ( * ( - 1 ) undef43 ) ) 0 ) ( not ( <= undef21 0 ) ) ( <= ( + 1 ( * ( - 1 ) undef43 ) ) 0 ) ( <= ( + 1 ( * ( - 1 ) undef139 ) ) 0 ) ( <= ( + 1 ( * ( - 1 ) undef140 ) ) 0 ) ( <= ( + 2 ( * ( - 1 ) undef26 ) ) 0 ) ( <= ( + 2 ( * ( - 1 ) undef49 ) ) 0 ) ( <= ( + ( + ( + ( + Nl5CT1 ( * Nl5arg11 0 ) ) ( * Nl5arg21 0 ) ) ( * Nl5arg31 0 ) ) ( * ( + 0 ( * Nl5arg11 1 ) ) undef21 ) ( * ( + 0 ( * Nl5arg21 1 ) ) undef22 ) ( * ( + 0 ( * Nl5arg31 1 ) ) undef23 ) ) 0 ) ( <= ( + ( + ( + ( + Nl5CT2 ( * Nl5arg12 0 ) ) ( * Nl5arg22 0 ) ) ( * Nl5arg32 0 ) ) ( * ( + 0 ( * Nl5arg12 1 ) ) undef21 ) ( * ( + 0 ( * Nl5arg22 1 ) ) undef22 ) ( * ( + 0 ( * Nl5arg32 1 ) ) undef23 ) ) 0 ) ( <= ( + ( + ( + ( + Nl5CT3 ( * Nl5arg13 0 ) ) ( * Nl5arg23 0 ) ) ( * Nl5arg33 0 ) ) ( * ( + 0 ( * Nl5arg13 1 ) ) undef21 ) ( * ( + 0 ( * Nl5arg23 1 ) ) undef22 ) ( * ( + 0 ( * Nl5arg33 1 ) ) undef23 ) ) 0 ) ) ( and ( <= ( + undef11 ( * ( - 1 ) undef139 ) ) 0 ) ( <= ( + 1 ( * ( - 1 ) undef11 ) ) 0 ) ( <= ( + 1 ( * ( - 1 ) undef11 ) undef32 ) 0 ) ( not ( <= undef32 0 ) ) ( <= ( + 1 ( * ( - 1 ) undef139 ) ) 0 ) ( <= ( + 1 ( * ( - 1 ) undef140 ) ) 0 ) ( = undef12 0 ) ( <= ( + ( + ( + ( + Nl5CT1 ( * Nl5arg11 0 ) ) ( * Nl5arg21 0 ) ) ( * Nl5arg31 0 ) ) ( * ( + 0 ( * Nl5arg11 1 ) ) undef32 ) ( * ( + 0 ( * Nl5arg21 1 ) ) undef33 ) ( * ( + 0 ( * Nl5arg31 1 ) ) undef34 ) ) 0 ) ( <= ( + ( + ( + ( + Nl5CT2 ( * Nl5arg12 0 ) ) ( * Nl5arg22 0 ) ) ( * Nl5arg32 0 ) ) ( * ( + 0 ( * Nl5arg12 1 ) ) undef32 ) ( * ( + 0 ( * Nl5arg22 1 ) ) undef33 ) ( * ( + 0 ( * Nl5arg32 1 ) ) undef34 ) ) 0 ) ( <= ( + ( + ( + ( + Nl5CT3 ( * Nl5arg13 0 ) ) ( * Nl5arg23 0 ) ) ( * Nl5arg33 0 ) ) ( * ( + 0 ( * Nl5arg13 1 ) ) undef32 ) ( * ( + 0 ( * Nl5arg23 1 ) ) undef33 ) ( * ( + 0 ( * Nl5arg33 1 ) ) undef34 ) ) 0 ) ) ( and ( <= ( + undef11 ( * ( - 1 ) undef139 ) ) 0 ) ( <= ( + ( * ( - 1 ) undef11 ) undef37 ) 0 ) ( <= ( + 1 ( * ( - 1 ) undef11 ) ) 0 ) ( <= ( + 1 undef21 ( * ( - 1 ) undef37 ) ) 0 ) ( not ( <= undef21 0 ) ) ( <= ( + 1 ( * ( - 1 ) undef37 ) ) 0 ) ( <= ( + 1 ( * ( - 1 ) undef139 ) ) 0 ) ( <= ( + 1 ( * ( - 1 ) undef140 ) ) 0 ) ( <= ( + 2 ( * ( - 1 ) undef26 ) ) 0 ) ( <= ( + 2 ( * ( - 1 ) undef42 ) ) 0 ) ( = undef12 0 ) ( <= ( + ( + ( + ( + Nl5CT1 ( * Nl5arg11 0 ) ) ( * Nl5arg21 0 ) ) ( * Nl5arg31 0 ) ) ( * ( + 0 ( * Nl5arg11 1 ) ) undef21 ) ( * ( + 0 ( * Nl5arg21 1 ) ) undef22 ) ( * ( + 0 ( * Nl5arg31 1 ) ) undef23 ) ) 0 ) ( <= ( + ( + ( + ( + Nl5CT2 ( * Nl5arg12 0 ) ) ( * Nl5arg22 0 ) ) ( * Nl5arg32 0 ) ) ( * ( + 0 ( * Nl5arg12 1 ) ) undef21 ) ( * ( + 0 ( * Nl5arg22 1 ) ) undef22 ) ( * ( + 0 ( * Nl5arg32 1 ) ) undef23 ) ) 0 ) ( <= ( + ( + ( + ( + Nl5CT3 ( * Nl5arg13 0 ) ) ( * Nl5arg23 0 ) ) ( * Nl5arg33 0 ) ) ( * ( + 0 ( * Nl5arg13 1 ) ) undef21 ) ( * ( + 0 ( * Nl5arg23 1 ) ) undef22 ) ( * ( + 0 ( * Nl5arg33 1 ) ) undef23 ) ) 0 ) ) ( and ( <= ( + undef11 ( * ( - 1 ) undef139 ) ) 0 ) ( <= ( + ( * ( - 1 ) undef11 ) undef43 ) 0 ) ( <= ( * ( - 1 ) undef48 ) 0 ) ( <= ( + 1 ( * ( - 1 ) undef11 ) ) 0 ) ( <= ( + 1 undef21 ( * ( - 1 ) undef43 ) ) 0 ) ( not ( <= undef21 0 ) ) ( <= ( + 1 ( * ( - 1 ) undef43 ) ) 0 ) ( <= ( + 1 ( * ( - 1 ) undef139 ) ) 0 ) ( <= ( + 1 ( * ( - 1 ) undef140 ) ) 0 ) ( <= ( + 2 ( * ( - 1 ) undef26 ) ) 0 ) ( <= ( + 2 ( * ( - 1 ) undef49 ) ) 0 ) ( = undef12 0 ) ( <= ( + ( + ( + ( + Nl5CT1 ( * Nl5arg11 0 ) ) ( * Nl5arg21 0 ) ) ( * Nl5arg31 0 ) ) ( * ( + 0 ( * Nl5arg11 1 ) ) undef21 ) ( * ( + 0 ( * Nl5arg21 1 ) ) undef22 ) ( * ( + 0 ( * Nl5arg31 1 ) ) undef23 ) ) 0 ) ( <= ( + ( + ( + ( + Nl5CT2 ( * Nl5arg12 0 ) ) ( * Nl5arg22 0 ) ) ( * Nl5arg32 0 ) ) ( * ( + 0 ( * Nl5arg12 1 ) ) undef21 ) ( * ( + 0 ( * Nl5arg22 1 ) ) undef22 ) ( * ( + 0 ( * Nl5arg32 1 ) ) undef23 ) ) 0 ) ( <= ( + ( + ( + ( + Nl5CT3 ( * Nl5arg13 0 ) ) ( * Nl5arg23 0 ) ) ( * Nl5arg33 0 ) ) ( * ( + 0 ( * Nl5arg13 1 ) ) undef21 ) ( * ( + 0 ( * Nl5arg23 1 ) ) undef22 ) ( * ( + 0 ( * Nl5arg33 1 ) ) undef23 ) ) 0 ) ) ( and ( <= ( + 1 undef27 ( * ( - 1 ) undef139 ) ) 0 ) ( not ( <= undef27 0 ) ) ( <= ( + 1 ( * ( - 1 ) undef139 ) ) 0 ) ( = undef140 0 ) ( <= ( + ( + ( + ( + Nl5CT1 ( * Nl5arg11 0 ) ) ( * Nl5arg21 0 ) ) ( * Nl5arg31 0 ) ) ( * ( + 0 ( * Nl5arg11 1 ) ) undef27 ) ( * ( + 0 ( * Nl5arg21 1 ) ) undef28 ) ( * ( + 0 ( * Nl5arg31 1 ) ) undef29 ) ) 0 ) ( <= ( + ( + ( + ( + Nl5CT2 ( * Nl5arg12 0 ) ) ( * Nl5arg22 0 ) ) ( * Nl5arg32 0 ) ) ( * ( + 0 ( * Nl5arg12 1 ) ) undef27 ) ( * ( + 0 ( * Nl5arg22 1 ) ) undef28 ) ( * ( + 0 ( * Nl5arg32 1 ) ) undef29 ) ) 0 ) ( <= ( + ( + ( + ( + Nl5CT3 ( * Nl5arg13 0 ) ) ( * Nl5arg23 0 ) ) ( * Nl5arg33 0 ) ) ( * ( + 0 ( * Nl5arg13 1 ) ) undef27 ) ( * ( + 0 ( * Nl5arg23 1 ) ) undef28 ) ( * ( + 0 ( * Nl5arg33 1 ) ) undef29 ) ) 0 ) ) ( and ( <= ( + 1 ( * ( - 1 ) undef139 ) ) 0 ) ( <= ( + ( - 1 ) undef50 ( * ( - 1 ) undef139 ) ) 0 ) ( <= ( + 2 ( * ( - 1 ) undef50 ) ) 0 ) ( = undef140 0 ) ( <= ( + ( + ( + ( + Nl5CT1 ( * Nl5arg11 0 ) ) ( * Nl5arg21 0 ) ) ( * Nl5arg31 0 ) ) ( * ( + 0 ( * Nl5arg11 1 ) ) undef50 ) ( * ( + 0 ( * Nl5arg21 1 ) ) undef51 ) ( * ( + 0 ( * Nl5arg31 1 ) ) undef52 ) ) 0 ) ( <= ( + ( + ( + ( + Nl5CT2 ( * Nl5arg12 0 ) ) ( * Nl5arg22 0 ) ) ( * Nl5arg32 0 ) ) ( * ( + 0 ( * Nl5arg12 1 ) ) undef50 ) ( * ( + 0 ( * Nl5arg22 1 ) ) undef51 ) ( * ( + 0 ( * Nl5arg32 1 ) ) undef52 ) ) 0 ) ( <= ( + ( + ( + ( + Nl5CT3 ( * Nl5arg13 0 ) ) ( * Nl5arg23 0 ) ) ( * Nl5arg33 0 ) ) ( * ( + 0 ( * Nl5arg13 1 ) ) undef50 ) ( * ( + 0 ( * Nl5arg23 1 ) ) undef51 ) ( * ( + 0 ( * Nl5arg33 1 ) ) undef52 ) ) 0 ) ) ( and ( <= ( + ( * ( - 1 ) arg1 ) undef79 ) 0 ) ( <= ( + ( * ( - 1 ) arg2 ) undef79 ) 0 ) ( <= ( + ( * ( - 1 ) arg2 ) undef80 ) 0 ) ( <= ( + ( * ( - 1 ) undef80 ) undef100 ) 0 ) ( <= ( + ( * ( - 1 ) undef81 ) undef84 ) 0 ) ( <= ( + 1 ( * ( - 1 ) arg1 ) ) 0 ) ( <= ( + 1 ( * ( - 1 ) arg2 ) ) 0 ) ( <= ( + 1 ( * ( - 1 ) undef79 ) ) 0 ) ( <= ( + 1 ( * ( - 1 ) undef80 ) ) 0 ) ( <= ( + 1 ( * ( - 1 ) undef81 ) ) 0 ) ( <= ( + 1 ( * ( - 1 ) undef100 ) ) 0 ) ( <= ( + 1 ( * ( - 1 ) undef105 ) ) 0 ) ( <= ( + 2 ( * ( - 1 ) arg2 ) arg3 ) 0 ) ( <= ( + 2 ( * ( - 1 ) arg2 ) undef83 ) 0 ) ( <= ( + 2 arg3 ( * ( - 1 ) undef80 ) ) 0 ) ( <= ( + 2 ( * ( - 1 ) undef80 ) undef83 ) 0 ) ( <= ( + ( + ( + ( + Nl5CT1 ( * Nl5arg11 0 ) ) ( * Nl5arg21 0 ) ) ( * Nl5arg31 0 ) ) ( * ( + 0 ( * Nl5arg11 1 ) ) undef100 ) ( * ( + 0 ( * Nl5arg21 1 ) ) undef101 ) ( * ( + 0 ( * Nl5arg31 1 ) ) undef102 ) ) 0 ) ( <= ( + ( + ( + ( + Nl5CT2 ( * Nl5arg12 0 ) ) ( * Nl5arg22 0 ) ) ( * Nl5arg32 0 ) ) ( * ( + 0 ( * Nl5arg12 1 ) ) undef100 ) ( * ( + 0 ( * Nl5arg22 1 ) ) undef101 ) ( * ( + 0 ( * Nl5arg32 1 ) ) undef102 ) ) 0 ) ( <= ( + ( + ( + ( + Nl5CT3 ( * Nl5arg13 0 ) ) ( * Nl5arg23 0 ) ) ( * Nl5arg33 0 ) ) ( * ( + 0 ( * Nl5arg13 1 ) ) undef100 ) ( * ( + 0 ( * Nl5arg23 1 ) ) undef101 ) ( * ( + 0 ( * Nl5arg33 1 ) ) undef102 ) ) 0 ) ) ( and ( <= ( + ( * ( - 1 ) arg1 ) undef85 ) 0 ) ( <= ( + ( * ( - 1 ) arg2 ) undef85 ) 0 ) ( <= ( + ( * ( - 1 ) arg2 ) undef86 ) 0 ) ( <= ( + ( * ( - 1 ) undef86 ) undef100 ) 0 ) ( <= ( * ( - 1 ) undef90 ) 0 ) ( <= ( + 1 ( * ( - 1 ) arg1 ) ) 0 ) ( <= ( + 1 ( * ( - 1 ) arg2 ) ) 0 ) ( <= ( + 1 ( * ( - 1 ) undef85 ) ) 0 ) ( <= ( + 1 ( * ( - 1 ) undef86 ) ) 0 ) ( <= ( + 1 undef90 ( * ( - 1 ) undef91 ) ) 0 ) ( <= ( + 1 ( * ( - 1 ) undef100 ) ) 0 ) ( <= ( + 1 ( * ( - 1 ) undef105 ) ) 0 ) ( <= ( + 2 ( * ( - 1 ) arg2 ) arg3 ) 0 ) ( <= ( + 2 ( * ( - 1 ) arg2 ) undef89 ) 0 ) ( <= ( + 2 arg3 ( * ( - 1 ) undef86 ) ) 0 ) ( <= ( + 2 ( * ( - 1 ) undef86 ) undef89 ) 0 ) ( <= ( + ( + ( + ( + Nl5CT1 ( * Nl5arg11 0 ) ) ( * Nl5arg21 0 ) ) ( * Nl5arg31 0 ) ) ( * ( + 0 ( * Nl5arg11 1 ) ) undef100 ) ( * ( + 0 ( * Nl5arg21 1 ) ) undef101 ) ( * ( + 0 ( * Nl5arg31 1 ) ) undef102 ) ) 0 ) ( <= ( + ( + ( + ( + Nl5CT2 ( * Nl5arg12 0 ) ) ( * Nl5arg22 0 ) ) ( * Nl5arg32 0 ) ) ( * ( + 0 ( * Nl5arg12 1 ) ) undef100 ) ( * ( + 0 ( * Nl5arg22 1 ) ) undef101 ) ( * ( + 0 ( * Nl5arg32 1 ) ) undef102 ) ) 0 ) ( <= ( + ( + ( + ( + Nl5CT3 ( * Nl5arg13 0 ) ) ( * Nl5arg23 0 ) ) ( * Nl5arg33 0 ) ) ( * ( + 0 ( * Nl5arg13 1 ) ) undef100 ) ( * ( + 0 ( * Nl5arg23 1 ) ) undef101 ) ( * ( + 0 ( * Nl5arg33 1 ) ) undef102 ) ) 0 ) ) ( and ( <= ( + ( * ( - 1 ) arg1 ) undef92 ) 0 ) ( <= ( + ( * ( - 1 ) arg2 ) undef92 ) 0 ) ( <= ( + ( * ( - 1 ) arg2 ) undef93 ) 0 ) ( <= ( + ( * ( - 1 ) undef93 ) undef100 ) 0 ) ( <= ( * ( - 1 ) undef97 ) 0 ) ( <= ( * ( - 1 ) undef99 ) 0 ) ( <= ( + 1 ( * ( - 1 ) arg1 ) ) 0 ) ( <= ( + 1 ( * ( - 1 ) arg2 ) ) 0 ) ( <= ( + 1 ( * ( - 1 ) undef92 ) ) 0 ) ( <= ( + 1 ( * ( - 1 ) undef93 ) ) 0 ) ( <= ( + 1 undef97 ( * ( - 1 ) undef98 ) ) 0 ) ( <= ( + 1 ( * ( - 1 ) undef100 ) ) 0 ) ( <= ( + 1 ( * ( - 1 ) undef105 ) ) 0 ) ( <= ( + 2 ( * ( - 1 ) arg2 ) arg3 ) 0 ) ( <= ( + 2 ( * ( - 1 ) arg2 ) undef96 ) 0 ) ( <= ( + 2 arg3 ( * ( - 1 ) undef93 ) ) 0 ) ( <= ( + 2 ( * ( - 1 ) undef93 ) undef96 ) 0 ) ( <= ( + ( + ( + ( + Nl5CT1 ( * Nl5arg11 0 ) ) ( * Nl5arg21 0 ) ) ( * Nl5arg31 0 ) ) ( * ( + 0 ( * Nl5arg11 1 ) ) undef100 ) ( * ( + 0 ( * Nl5arg21 1 ) ) undef101 ) ( * ( + 0 ( * Nl5arg31 1 ) ) undef102 ) ) 0 ) ( <= ( + ( + ( + ( + Nl5CT2 ( * Nl5arg12 0 ) ) ( * Nl5arg22 0 ) ) ( * Nl5arg32 0 ) ) ( * ( + 0 ( * Nl5arg12 1 ) ) undef100 ) ( * ( + 0 ( * Nl5arg22 1 ) ) undef101 ) ( * ( + 0 ( * Nl5arg32 1 ) ) undef102 ) ) 0 ) ( <= ( + ( + ( + ( + Nl5CT3 ( * Nl5arg13 0 ) ) ( * Nl5arg23 0 ) ) ( * Nl5arg33 0 ) ) ( * ( + 0 ( * Nl5arg13 1 ) ) undef100 ) ( * ( + 0 ( * Nl5arg23 1 ) ) undef101 ) ( * ( + 0 ( * Nl5arg33 1 ) ) undef102 ) ) 0 ) ) ))
(assert ( or ( and ( and ( >= lam44n0 0 ) ( >= lam44n1 0 ) ( >= lam44n2 0 ) ( >= lam44n3 0 ) ( >= lam44n4 0 ) ( >= lam44n5 0 ) ( >= lam44n6 0 ) ( > ( + ( * 1 lam44n1 ) ( * 1 lam44n2 ) ( * 1 lam44n3 ) ( * Nl5CT1 lam44n4 ) ( * Nl5CT2 lam44n5 ) ( * Nl5CT3 lam44n6 ) ( - 1 ( - ( + ( + ( + RFN1_CT ( * RFN1_arg1 0 ) ) ( * RFN1_arg2 0 ) ) ( * RFN1_arg3 0 ) ) RFN1_CT ) ) ) 0 ) ( = ( + ( * ( - 1 ) lam44n0 ) ( * ( - 1 ) lam44n1 ) ( * Nl5arg11 lam44n4 ) ( * Nl5arg12 lam44n5 ) ( * Nl5arg13 lam44n6 ) ( - ( - RFN1_arg1 ) ) ) 0 ) ( = ( + ( * Nl5arg21 lam44n4 ) ( * Nl5arg22 lam44n5 ) ( * Nl5arg23 lam44n6 ) ( - ( - RFN1_arg2 ) ) ) 0 ) ( = ( + ( * Nl5arg31 lam44n4 ) ( * Nl5arg32 lam44n5 ) ( * Nl5arg33 lam44n6 ) ( - ( - RFN1_arg3 ) ) ) 0 ) ( = ( + ( * 1 lam44n0 ) ( * ( - 1 ) lam44n2 ) ( - ( + 0 ( * RFN1_arg1 1 ) ) ) ) 0 ) ( = ( - ( + 0 ( * RFN1_arg2 1 ) ) ) 0 ) ( = ( - ( + 0 ( * RFN1_arg3 1 ) ) ) 0 ) ( = ( * ( - 1 ) lam44n3 ) 0 ) ) ( and ( and ( >= lam42n0 0 ) ( >= lam42n1 0 ) ( >= lam42n2 0 ) ( >= lam42n3 0 ) ( >= lam42n4 0 ) ( >= lam42n5 0 ) ( >= lam42n6 0 ) ( > ( + ( * 1 lam42n1 ) ( * 1 lam42n2 ) ( * 1 lam42n3 ) ( * Nl5CT1 lam42n4 ) ( * Nl5CT2 lam42n5 ) ( * Nl5CT3 lam42n6 ) ( - 1 ( - RFN1_CT ) ) ) 0 ) ( = ( + ( * ( - 1 ) lam42n0 ) ( * ( - 1 ) lam42n1 ) ( * Nl5arg11 lam42n4 ) ( * Nl5arg12 lam42n5 ) ( * Nl5arg13 lam42n6 ) ( - ( - RFN1_arg1 ) ) ) 0 ) ( = ( + ( * Nl5arg21 lam42n4 ) ( * Nl5arg22 lam42n5 ) ( * Nl5arg23 lam42n6 ) ( - ( - RFN1_arg2 ) ) ) 0 ) ( = ( + ( * Nl5arg31 lam42n4 ) ( * Nl5arg32 lam42n5 ) ( * Nl5arg33 lam42n6 ) ( - ( - RFN1_arg3 ) ) ) 0 ) ( = ( + ( * 1 lam42n0 ) ( * ( - 1 ) lam42n2 ) ) 0 ) ( = ( * ( - 1 ) lam42n3 ) 0 ) ) ( and ( >= lam43n0 0 ) ( >= lam43n1 0 ) ( >= lam43n2 0 ) ( >= lam43n3 0 ) ( >= lam43n4 0 ) ( >= lam43n5 0 ) ( >= lam43n6 0 ) ( > ( + ( * 1 lam43n1 ) ( * 1 lam43n2 ) ( * 1 lam43n3 ) ( * Nl5CT1 lam43n4 ) ( * Nl5CT2 lam43n5 ) ( * Nl5CT3 lam43n6 ) ( - 1 ( + ( - ( + ( + ( + RFN1_CT ( * RFN1_arg1 0 ) ) ( * RFN1_arg2 0 ) ) ( * RFN1_arg3 0 ) ) RFN1_CT ) 1 ) ) ) 0 ) ( = ( + ( * ( - 1 ) lam43n0 ) ( * ( - 1 ) lam43n1 ) ( * Nl5arg11 lam43n4 ) ( * Nl5arg12 lam43n5 ) ( * Nl5arg13 lam43n6 ) ( - ( - RFN1_arg1 ) ) ) 0 ) ( = ( + ( * Nl5arg21 lam43n4 ) ( * Nl5arg22 lam43n5 ) ( * Nl5arg23 lam43n6 ) ( - ( - RFN1_arg2 ) ) ) 0 ) ( = ( + ( * Nl5arg31 lam43n4 ) ( * Nl5arg32 lam43n5 ) ( * Nl5arg33 lam43n6 ) ( - ( - RFN1_arg3 ) ) ) 0 ) ( = ( + ( * 1 lam43n0 ) ( * ( - 1 ) lam43n2 ) ( - ( + 0 ( * RFN1_arg1 1 ) ) ) ) 0 ) ( = ( - ( + 0 ( * RFN1_arg2 1 ) ) ) 0 ) ( = ( - ( + 0 ( * RFN1_arg3 1 ) ) ) 0 ) ( = ( * ( - 1 ) lam43n3 ) 0 ) ) ) ) ( and ( >= lam41n0 0 ) ( >= lam41n1 0 ) ( >= lam41n2 0 ) ( >= lam41n3 0 ) ( >= lam41n4 0 ) ( >= lam41n5 0 ) ( >= lam41n6 0 ) ( > ( + ( * 1 lam41n1 ) ( * 1 lam41n2 ) ( * 1 lam41n3 ) ( * Nl5CT1 lam41n4 ) ( * Nl5CT2 lam41n5 ) ( * Nl5CT3 lam41n6 ) ( - 1 ) ) 0 ) ( = ( + ( * ( - 1 ) lam41n0 ) ( * ( - 1 ) lam41n1 ) ( * Nl5arg11 lam41n4 ) ( * Nl5arg12 lam41n5 ) ( * Nl5arg13 lam41n6 ) ) 0 ) ( = ( + ( * Nl5arg21 lam41n4 ) ( * Nl5arg22 lam41n5 ) ( * Nl5arg23 lam41n6 ) ) 0 ) ( = ( + ( * Nl5arg31 lam41n4 ) ( * Nl5arg32 lam41n5 ) ( * Nl5arg33 lam41n6 ) ) 0 ) ( = ( + ( * 1 lam41n0 ) ( * ( - 1 ) lam41n2 ) ) 0 ) ( = ( * ( - 1 ) lam41n3 ) 0 ) ) ))
(check-sat)
(exit)
